Log file: C:\Users\user\robust_bilevel_network_games\true_dro\S20_beta0p8_cov95\log_polska_20260417_1433864.txt
Started: 2026-04-17T14:33:14.864


======================================================================
INSTANCE: polska (S=20, β=0.8, ε̂=0.49, ε̃=0.49)
======================================================================
============================================================
POLSKA Network Summary
============================================================
Number of nodes: 12
Number of arcs (incl. dummy): 37
Number of regular arcs: 36
Number of interdictable arcs: 28
Source node: s (Szczecin)
Sink node: t (Rzeszow)
Node-incidence matrix N dimensions: (11, 37)

Sparsity Information:
  Arc-arc adjacency: 384 / 1296 pairs (70.4% sparse)
  Node-arc incidence: 68 / 396 pairs (82.8% sparse)

First 15 arcs:
  Arc 1: ("Bialystok", "Gdansk") [Interdictable: ✓]
  Arc 2: ("Bialystok", "Warsaw") [Interdictable: ✓]
  Arc 3: ("Bialystok", "t") [Interdictable: ✗]
  Arc 4: ("Bydgoszcz", "Kolobrzeg") [Interdictable: ✓]
  Arc 5: ("Bydgoszcz", "Poznan") [Interdictable: ✓]
  Arc 6: ("Bydgoszcz", "Warsaw") [Interdictable: ✓]
  Arc 7: ("Gdansk", "Bialystok") [Interdictable: ✓]
  Arc 8: ("Gdansk", "Kolobrzeg") [Interdictable: ✓]
  Arc 9: ("Gdansk", "Warsaw") [Interdictable: ✓]
  Arc 10: ("Katowice", "Krakow") [Interdictable: ✓]
  Arc 11: ("Katowice", "Lodz") [Interdictable: ✓]
  Arc 12: ("Katowice", "Wroclaw") [Interdictable: ✓]
  Arc 13: ("Kolobrzeg", "Bydgoszcz") [Interdictable: ✓]
  Arc 14: ("Kolobrzeg", "Gdansk") [Interdictable: ✓]
  Arc 15: ("Kolobrzeg", "s") [Interdictable: ✗]
============================================================
  |A|=36, S=20, γ=3, w=3.137, λU=2.0
  ε̂=0.49, ε̃=0.49

----------------------------------------
VI-only OMP diagnostic (no Benders cuts)
Set parameter Username
Set parameter LicenseID to value 2742039
Academic license - for non-commercial use only - expires 2026-11-20
Set parameter OutputFlag to value 1
Set parameter OutputFlag to value 1
Gurobi Optimizer version 13.0.0 build v13.0.0rc1 (win64 - Windows 10.0 (19045.2))

CPU model: AMD Ryzen 9 5900X 12-Core Processor, instruction set [SSE2|AVX|AVX2]
Thread count: 12 physical cores, 24 logical processors, using up to 24 threads

Optimize a model with 2910 rows, 1697 columns and 8465 nonzeros (Min)
Model fingerprint: 0xbbcde029
Model has 1 linear objective coefficients
Variable types: 1661 continuous, 36 integer (36 binary)
Coefficient statistics:
  Matrix range     [1e-02, 1e+00]
  Objective range  [1e+00, 1e+00]
  Bounds range     [1e+00, 1e+04]
  RHS range        [1e+00, 3e+00]
Found heuristic solution: objective 26.2956887
Presolve removed 1369 rows and 392 columns
Presolve time: 0.01s
Presolved: 1541 rows, 1305 columns, 3625 nonzeros
Found heuristic solution: objective 26.2956887
Variable types: 1280 continuous, 25 integer (25 binary)

Root relaxation: objective 5.717649e-15, 297 iterations, 0.00 seconds (0.00 work units)

    Nodes    |    Current Node    |     Objective Bounds      |     Work
 Expl Unexpl |  Obj  Depth IntInf | Incumbent    BestBd   Gap | It/Node Time

*    0     0               0       0.0000000    0.00000  0.00%     -    0s

Explored 1 nodes (297 simplex iterations) in 0.01 seconds (0.01 work units)
Thread count was 24 (of 24 available processors)

Solution count 2: 1.33227e-15 26.2957 

Optimal solution found (tolerance 1.00e-04)
Best objective 0.000000000000e+00, best bound 0.000000000000e+00, gap 0.0000%

User-callback calls 39, time in user-callback 0.00 sec
  VI-only LB = 0.000000, x = [0, 0, 0, 0, 0, 0, 0, 0, 0, 0, 0, 1, 0, 0, 0, 0, 0, 0, 0, 0, 1, 0, 1, 0, 0, 0, 0, 0, 0, 0, 0, 0, 0, 0, 0, 0]
----------------------------------------

======================================================================
1. True-DRO Benders (bilinear subproblem via Gurobi NonConvex=2)
======================================================================
Set parameter Username
Set parameter LicenseID to value 2742039
Academic license - for non-commercial use only - expires 2026-11-20
Set parameter Username
Set parameter LicenseID to value 2742039
Academic license - for non-commercial use only - expires 2026-11-20
Set parameter DualReductions to value 0
Set parameter NonConvex to value 2
Set parameter LogFile to value "global_miqcp.log"
Set parameter Username
Set parameter LicenseID to value 2742039
Academic license - for non-commercial use only - expires 2026-11-20
Set parameter DualReductions to value 0
Set parameter NonConvex to value 2
Set parameter OptimalityTarget to value 1
Set parameter Username
Set parameter LicenseID to value 2742039
Academic license - for non-commercial use only - expires 2026-11-20
Set parameter Username
Set parameter LicenseID to value 2742039
Academic license - for non-commercial use only - expires 2026-11-20
Set parameter Username
Set parameter LicenseID to value 2742039
Academic license - for non-commercial use only - expires 2026-11-20

=== True-DRO Benders iter 1 ===
  OMP: t₀=0.000000, UB=Inf, gap=NaN, x=[0, 0, 0, 0, 0, 0, 0, 0, 0, 0, 0, 1, 0, 0, 0, 0, 0, 0, 0, 0, 1, 0, 1, 0, 0, 0, 0, 0, 0, 0, 0, 0, 0, 0, 0, 0] (0.017s)
Set parameter TimeLimit to value 30
Set parameter MIPGap to value 0.0001
Set parameter MIPFocus to value 0
Set parameter NonConvex to value 2
Set parameter MIPGap to value 0.0001
Set parameter DualReductions to value 0
Set parameter OptimalityTarget to value 1
Set parameter MIPFocus to value 0
Set parameter TimeLimit to value 30
Gurobi Optimizer version 13.0.0 build v13.0.0rc1 (win64 - Windows 10.0 (19045.2))

CPU model: AMD Ryzen 9 5900X 12-Core Processor, instruction set [SSE2|AVX|AVX2]
Thread count: 12 physical cores, 24 logical processors, using up to 24 threads

Non-default parameters:
TimeLimit  30
OptimalityTarget  1
DualReductions  0
NonConvex  2

Optimize a model with 4218 rows, 8405 columns and 20033 nonzeros (Max)
Model fingerprint: 0xb8e1ac2e
Model has 1496 linear objective coefficients
Model has 1440 quadratic constraints
Coefficient statistics:
  Matrix range     [2e-01, 3e+01]
  QMatrix range    [1e+00, 1e+00]
  QLMatrix range   [1e+00, 1e+00]
  Objective range  [1e+00, 2e+00]
  Bounds range     [1e+00, 1e+01]
  RHS range        [5e-02, 3e+00]

Continuous model is non-convex -- solving with NL barrier

Presolve removed 1440 rows and 1440 columns
Presolve time: 0.00s
Presolved: 2778 rows, 6965 columns, 12833 nonzeros
Presolved model has 1440 quadratic constraint(s)
Ordering time: 0.01s

NL barrier statistics:
  Hessian NZ  : 1.440e+03
  Jacobian NZ : 2.003e+04
  Factor NZ   : 1.308e+05
  Factor Ops  : 2.546e+06
  Threads     : 1

                           Residuals
Iter     Objective      Primal     Dual      Compl     Step     Time
   0  -1.09367926e+04  7.68e+04  2.94e+03  3.71e+02  0.00e+00     0s
   1  -1.13830265e+04  5.76e+04  2.59e+03  3.27e+02  2.51e-01     0s
   2  -1.21221068e+04  3.31e+04  2.18e+03  2.89e+02  4.25e-01     0s
   3  -1.24446300e+04  2.41e+04  1.21e+03  1.54e+02  2.74e-01     0s
   4  -1.25938763e+04  1.95e+04  4.96e+02  5.74e+01  1.90e-01     0s
   5  -1.23640139e+04  5.53e+03  2.57e+02  2.89e+01  7.16e-01     0s
   6  -1.18394906e+04  4.24e+03  6.55e+01  8.79e+00  2.32e-01     0s
   7  -7.71850315e+03  7.90e+02  6.91e+00  1.74e+00  8.14e-01     0s
   8  -6.12410341e+03  3.58e+02  2.58e+00  1.32e+00  5.47e-01     0s
   9  -5.66246619e+03  2.20e+02  1.55e+00  1.20e+00  3.85e-01     0s
  10  -5.38670106e+03  1.40e+02  8.27e-01  1.12e+00  3.63e-01     0s
  11  -5.17670369e+03  8.33e+01  4.10e-01  1.07e+00  4.07e-01     0s
  12  -5.03375452e+03  5.11e+01  2.25e-01  1.04e+00  3.87e-01     0s
  13  -4.91441778e+03  2.50e+01  3.28e-02  1.01e+00  5.11e-01     0s
  14  -4.81492654e+03  2.72e-06  8.71e-05  1.00e+00  1.00e+00     0s
  15  -4.81014354e+03  8.22e-09  2.15e-07  1.00e+00  1.00e+00     0s
  16  -4.80977657e+03  2.28e-09  2.42e-08  1.00e+00  1.00e+00     0s
  17  -2.70351730e+03  1.66e-05  2.13e-03  4.07e-01  6.30e-01     0s
  18  -1.35524181e+03  1.30e-04  6.08e-02  3.00e-01  7.40e-01     0s
  19  -7.94550430e+02  1.30e-04  5.24e-02  1.61e-01  9.21e-01     0s
  20  -7.49399043e+02  2.90e-04  1.15e-02  1.50e-01  1.00e+00     0s
  21  -7.48906698e+02  3.59e-06  3.05e-05  1.50e-01  1.00e+00     0s
  22  -4.67816559e+02  3.22e-04  6.91e-02  8.58e-02  3.91e-01     0s
  23  -2.59059474e+02  7.42e-03  5.19e-01  4.63e-02  4.97e-01     0s
  24  -1.36949044e+02  6.84e-03  3.65e-01  2.80e-02  6.25e-01     0s
  25  -7.21492591e+01  6.15e-03  6.29e-02  2.25e-02  1.00e+00     0s
  26  -7.39064794e+01  1.30e-04  2.57e-03  2.25e-02  1.00e+00     0s
  27  -7.38422042e+01  1.29e-06  1.76e-04  2.25e-02  1.00e+00     0s
  28  -2.05883654e+01  1.50e-02  1.55e-01  1.36e-02  6.01e-01     0s
  29   8.98743209e+00  3.55e-02  1.80e-01  7.59e-03  8.65e-01     0s
  30   1.00965214e+01  3.04e-02  6.71e-02  5.38e-03  1.53e-01     0s
  31   1.33755119e+01  2.33e-03  9.05e-03  3.57e-03  9.15e-01     0s
  32   1.37079360e+01  9.11e-05  5.44e-04  3.38e-03  1.00e+00     0s
  33   1.37316577e+01  3.59e-07  8.11e-06  3.37e-03  1.00e+00     0s
  34   1.87801122e+01  6.68e-04  4.02e-02  1.37e-03  4.03e-01     0s
  35   2.47388120e+01  5.30e-03  1.65e-02  5.56e-04  8.20e-01     0s
  36   2.51167804e+01  4.00e-03  1.31e-02  4.29e-04  2.62e-01     0s
  37   2.56196960e+01  2.13e-03  6.48e-03  3.89e-04  4.89e-01     0s
  38   2.58921132e+01  1.01e-03  2.72e-03  3.67e-04  5.35e-01     0s
  39   2.60809328e+01  1.93e-04  7.43e-04  3.52e-04  8.10e-01     0s
  40   2.61102693e+01  8.77e-06  8.41e-05  3.46e-04  9.54e-01     0s
  41   2.61177799e+01  2.78e-08  7.12e-04  3.46e-04  1.00e+00     0s
  42   2.61185700e+01  2.24e-09  2.28e-06  3.46e-04  1.00e+00     0s
  43   2.61190204e+01  4.75e-10  5.25e-08  3.46e-04  1.00e+00     0s
  44   2.63659359e+01  7.10e-06  1.61e-02  1.35e-04  1.84e-01     0s
  45   2.72228752e+01  3.26e-04  5.74e-03  6.57e-05  7.59e-01     0s
  46   2.73443551e+01  1.92e-04  3.99e-03  2.31e-05  4.38e-01     0s
  47   2.74289657e+01  7.31e-05  1.44e-03  1.75e-05  6.13e-01     0s
  48   2.74887059e+01  2.71e-06  6.53e-04  1.43e-05  1.00e+00     0s
  49   2.74878210e+01  7.07e-09  3.43e-05  1.43e-05  1.00e+00     0s
  50   2.74876995e+01  2.44e-10  4.16e-07  1.43e-05  1.00e+00     0s
  51   2.74876983e+01  9.31e-11  4.93e-11  1.43e-05  1.00e+00     0s
  52   2.75328236e+01  1.72e-06  6.28e-04  5.24e-06  7.71e-01     0s
  53   2.75478897e+01  4.06e-07  3.94e-04  8.77e-07  1.00e+00     0s
  54   2.75478966e+01  6.37e-12  6.41e-09  1.65e-07  1.00e+00     0s
  55   2.75486094e+01  6.52e-10  8.80e-08  1.08e-09  1.00e+00     0s
  56   2.75486077e+01  9.16e-07  3.17e-05  9.95e-10  1.00e+00     0s
  57   2.75486077e+01  9.16e-07  4.25e-04  9.96e-10  1.53e-04     0s
  58   2.75486089e+01  2.97e-07  5.83e-05  9.98e-10  6.80e-01     0s
  59   2.75486094e+01  1.67e-09  8.96e-07  1.00e-09  1.00e+00     0s
  60   2.75486087e+01  5.74e-07  1.89e-06  9.99e-10  1.00e+00     0s
  61   2.75486094e+01  2.56e-08  7.53e-07  9.99e-10  1.00e+00     0s
  62   2.75486094e+01  4.08e-11  3.59e-07  1.00e-09  1.00e+00     0s
  63   2.75486094e+01  1.06e-07  2.05e-08  1.00e-09  1.00e+00     0s
  64   2.75486094e+01  1.45e-11  4.01e-08  1.00e-09  1.00e+00     0s
  65   2.75486095e+01  5.23e-12  1.08e-09  1.00e-09  1.00e+00     0s

NL barrier solved model in 65 iterations and 0.30 seconds (0.40 work units)
First-order optimal solution
Solution objective 2.754860945842e+01

User-callback calls 166, time in user-callback 0.00 sec
  Sub: Z₀=27.548609 [LOCAL], α=[0.000,0.000,0.000,0.000,0.000,0.000,0.000,0.000,0.000,0.000,0.000,0.000,0.000,0.000,0.000,0.000,0.000,0.000,0.000,0.000,0.000,0.000,3.137,0.000,0.000,0.000,0.000,0.000,0.000,0.000,0.000,0.000,0.000,0.000,0.000,0.000]
  Iter 1: LB=0.000000  UB=Inf  gap=NaN
  Cut: intercept=-868.108102, π_x_range=[-419.8093, 299.6381]
  [ρ-diag] φ̂U=1.00, φ̃U=2.00, λU=2.00
    π_L range=[-137.2534, 91.3234], |π_L|_∞=137.2534
    π_F range=[-269.3611, 191.8073], |π_F|_∞=269.3611
    π_ψ range=[-13.3333, 17.7822], |π_ψ|_∞=17.7822
    ρ̂1: [0.0000, 8.7913], ρ̂3: [0.0000, 5.0000]
    ρ̃1: [0.0000, 6.8623], ρ̃3: [0.0000, 4.9801]
    ρ⁰1: [0.0000, 6.6667], ρ⁰3: [0.0000, 8.8911]
  [φ-diag] φ̂ actual: [-0.0000, 1.0000], φ̂U=1.00
  [φ-diag] φ̃ actual: [-0.0000, 2.0000], φ̃U=2.00
  Mini-Benders[1] (mw): LB=-0.000000, Z₀(α*)=3.137000, intercept=15.267258
  Mini-Benders[2] (mw): LB=1.509223, Z₀(α*)=5.834152, intercept=16.348649
  Mini-Benders[3] (mw): LB=2.484152, Z₀(α*)=8.035710, intercept=19.464443
  Mini-Benders[4] (mw): LB=3.136999, Z₀(α*)=3.137000, intercept=15.267258
  Mini-Benders[5] (mw): LB=3.136999, Z₀(α*)=3.137000, intercept=15.267258
Set parameter NonConvex to value 2
Set parameter DualReductions to value 0
Set parameter LogFile to value "global_miqcp.log"
Gurobi Optimizer version 13.0.0 build v13.0.0rc1 (win64 - Windows 10.0 (19045.2))

CPU model: AMD Ryzen 9 5900X 12-Core Processor, instruction set [SSE2|AVX|AVX2]
Thread count: 12 physical cores, 24 logical processors, using up to 24 threads

Non-default parameters:
DualReductions  0
NonConvex  2

Optimize a model with 4218 rows, 8405 columns and 20033 nonzeros (Max)
Model fingerprint: 0x6bcbfdee
Model has 1496 linear objective coefficients
Model has 1440 quadratic constraints
Coefficient statistics:
  Matrix range     [2e-01, 3e+01]
  QMatrix range    [1e+00, 1e+00]
  QLMatrix range   [1e+00, 1e+00]
  Objective range  [1e+00, 2e+00]
  Bounds range     [1e-02, 3e+00]
  RHS range        [5e-02, 3e+00]
Presolve removed 102 rows and 688 columns
Presolve time: 0.00s
Presolved: 4908 rows, 7717 columns, 18169 nonzeros
Ordering time: 0.00s

Barrier statistics:
 Free vars  : 200
 AA' NZ     : 2.085e+04
 Factor NZ  : 1.228e+05 (roughly 6 MB of memory)
 Factor Ops : 7.000e+06 (less than 1 second per iteration)
 Threads    : 12

                  Objective                Residual
Iter       Primal          Dual         Primal    Dual     Compl     Time
   0  -2.76447943e+04 -0.00000000e+00  4.56e+03 1.00e+00  7.40e+01     0s
   1  -2.89417612e+04  7.20009896e+02  2.01e+03 5.23e+00  4.21e+01     0s
   2  -2.70390130e+04  9.02435765e+02  4.59e+02 1.84e+00  1.48e+01     0s
   3  -1.94244087e+04  6.92852346e+02  5.20e+01 6.65e-01  5.15e+00     0s
   4  -7.80259384e+03  5.44546368e+02  2.71e+00 1.94e-01  1.43e+00     0s
   5  -2.22233573e+03  3.47689693e+02  5.65e-01 2.41e-02  2.90e-01     0s
   6  -5.52454777e+02  1.58558629e+02  1.48e-01 3.20e-03  7.06e-02     0s
   7  -1.37814870e+02  9.50485853e+01  3.90e-02 1.55e-03  2.49e-02     0s
   8  -2.91769580e+01  1.61397903e+01  7.70e-03 6.55e-05  4.09e-03     0s
   9  -5.31872766e+00  4.85193670e+00  1.85e-03 3.26e-06  8.80e-04     0s
  10   2.64830756e+00  3.19412190e+00  1.01e-04 5.16e-08  4.61e-05     0s
  11   3.13623525e+00  3.13738036e+00  1.30e-08 4.49e-10  9.67e-08     0s
  12   3.13699873e+00  3.13700025e+00  1.83e-09 3.02e-13  1.28e-10     0s
  13   3.13700000e+00  3.13700000e+00  3.67e-11 1.42e-14  2.30e-16     0s

Barrier solved model in 13 iterations and 0.04 seconds (0.04 work units)
Optimal objective 3.13700000e+00


User-callback calls 55, time in user-callback 0.00 sec
  α-step: Z₀=3.137000, α=[0.000,0.000,0.000,0.000,0.000,1.052,0.000,0.000,0.000,0.000,0.000,0.000,0.000,0.970,0.000,0.000,0.000,0.000,0.000,0.000,0.000,0.000,1.115,0.000,0.000,0.000,0.000,0.000,0.000,0.000,0.000,0.000,0.000,0.000,0.000,0.000]
  Alt-Benders[1] (mw): LB=3.137000, Z₀(α*)=3.137000, intercept=28.399210
  Alt-Benders[2] (mw): LB=3.137000, Z₀(α*)=3.137000, intercept=28.399210
  Alt-Benders[3] (mw): LB=3.137000, Z₀(α*)=3.137000, intercept=28.399210
  Alt-Benders[4]: LB stagnated, break
  OMP re-solve: 0.000s

=== True-DRO Benders iter 2 ===
  OMP: t₀=3.137000, UB=Inf, gap=NaN, x=[0, 0, 0, 0, 0, 1, 0, 0, 0, 0, 0, 0, 0, 1, 0, 0, 0, 0, 0, 0, 0, 0, 1, 0, 0, 0, 0, 0, 0, 0, 0, 0, 0, 0, 0, 0] (0.000s)
Set parameter TimeLimit to value 30
Set parameter MIPGap to value 0.0001
Set parameter MIPFocus to value 0
Gurobi Optimizer version 13.0.0 build v13.0.0rc1 (win64 - Windows 10.0 (19045.2))

CPU model: AMD Ryzen 9 5900X 12-Core Processor, instruction set [SSE2|AVX|AVX2]
Thread count: 12 physical cores, 24 logical processors, using up to 24 threads

Non-default parameters:
TimeLimit  30
OptimalityTarget  1
DualReductions  0
NonConvex  2

Optimize a model with 4218 rows, 8405 columns and 20033 nonzeros (Max)
Model fingerprint: 0x1b7d6aaf
Model has 1496 linear objective coefficients
Model has 1440 quadratic constraints
Variable types: 8405 continuous, 0 integer (0 binary)
Coefficient statistics:
  Matrix range     [2e-01, 3e+01]
  QMatrix range    [1e+00, 1e+00]
  QLMatrix range   [1e+00, 1e+00]
  Objective range  [1e+00, 2e+00]
  Bounds range     [1e+00, 1e+01]
  RHS range        [5e-02, 3e+00]
Presolve removed 1440 rows and 1440 columns
Presolve time: 0.01s
Presolved: 2778 rows, 6965 columns, 12833 nonzeros
Presolved model has 1440 quadratic constraint(s)

Solving NLP to local optimality

Ordering time: 0.00s

NL barrier statistics:
  Hessian NZ  : 1.440e+03
  Jacobian NZ : 2.003e+04
  Factor NZ   : 1.308e+05
  Factor Ops  : 2.546e+06
  Threads     : 1

                           Residuals
Iter     Objective      Primal     Dual      Compl     Step     Time
   0  -1.09507749e+04  7.68e+04  2.94e+03  3.71e+02  0.00e+00     0s
   1  -1.13925349e+04  5.76e+04  2.59e+03  3.27e+02  2.51e-01     0s
   2  -1.21237082e+04  3.31e+04  2.18e+03  2.89e+02  4.24e-01     0s
   3  -1.24430859e+04  2.41e+04  1.21e+03  1.54e+02  2.74e-01     0s
   4  -1.25899858e+04  1.95e+04  4.96e+02  5.74e+01  1.90e-01     0s
   5  -1.23519886e+04  5.53e+03  2.57e+02  2.90e+01  7.16e-01     0s
   6  -1.18278040e+04  4.25e+03  6.54e+01  8.80e+00  2.32e-01     0s
   7  -7.67541819e+03  7.41e+02  6.86e+00  1.72e+00  8.25e-01     0s
   8  -6.10650703e+03  3.39e+02  2.67e+00  1.31e+00  5.43e-01     0s
   9  -5.67715042e+03  2.19e+02  1.66e+00  1.20e+00  3.55e-01     0s
  10  -5.39901556e+03  1.41e+02  8.99e-01  1.12e+00  3.57e-01     0s
  11  -5.18782523e+03  8.28e+01  5.45e-01  1.07e+00  4.11e-01     0s
  12  -5.00710558e+03  4.54e+01  3.50e-01  1.04e+00  4.51e-01     0s
  13  -4.92496805e+03  2.67e+01  3.50e-02  1.02e+00  4.12e-01     0s
  14  -4.81425696e+03  3.11e-06  2.32e-04  1.00e+00  1.00e+00     0s
  15  -4.80996653e+03  2.58e-08  6.04e-07  1.00e+00  1.00e+00     0s
  16  -4.80973258e+03  4.67e-09  1.26e-07  1.00e+00  1.00e+00     0s
  17  -2.73860985e+03  1.76e-05  2.59e-03  4.11e-01  6.20e-01     0s
  18  -1.38467009e+03  1.42e-04  6.30e-02  3.04e-01  7.27e-01     0s
  19  -9.94375065e+02  1.16e-04  2.99e-02  1.69e-01  6.10e-01     0s
  20  -7.45277324e+02  4.84e-04  1.14e-02  1.50e-01  1.00e+00     0s
  21  -7.49951088e+02  3.62e-06  2.83e-04  1.50e-01  1.00e+00     0s
  22  -7.49800300e+02  1.85e-09  1.10e-07  1.50e-01  1.00e+00     0s
  23  -4.95958395e+02  2.47e-04  1.13e-01  8.72e-02  3.55e-01     0s
  24  -2.53470629e+02  5.65e-03  2.10e-01  5.26e-02  5.45e-01     0s
  25  -1.18934320e+02  3.04e-03  2.72e-01  3.23e-02  7.30e-01     0s
  26  -8.12349733e+01  9.19e-04  2.45e-02  2.25e-02  1.00e+00     0s
  27  -8.27447304e+01  1.05e-05  7.31e-04  2.25e-02  1.00e+00     0s
  28  -3.33851147e+01  7.49e-04  6.18e-02  1.14e-02  5.96e-01     0s
  29  -1.36080009e+01  5.49e-04  4.30e-02  5.79e-03  7.30e-01     0s
  30  -8.10347315e+00  3.56e-05  8.36e-03  3.38e-03  1.00e+00     0s
  31  -8.04123402e+00  4.39e-05  6.91e-04  3.38e-03  1.00e+00     0s
  32  -8.04292154e+00  2.28e-08  1.31e-06  3.37e-03  1.00e+00     0s
  33  -3.97550003e-01  7.90e-05  1.27e-02  7.62e-04  7.41e-01     0s
  34   1.90167808e+00  1.32e-05  1.77e-03  3.54e-04  9.42e-01     0s
  35   2.02440645e+00  8.61e-06  4.76e-04  3.46e-04  1.00e+00     0s
  36   2.02464772e+00  1.11e-07  6.51e-06  3.46e-04  1.00e+00     0s
  37   2.86985775e+00  9.19e-06  9.20e-04  7.02e-05  7.88e-01     0s
  38   3.08860128e+00  1.11e-06  2.52e-04  1.45e-05  9.87e-01     0s
  39   3.09136853e+00  4.87e-07  1.24e-05  1.43e-05  1.00e+00     0s
  40   3.09136902e+00  8.91e-10  1.64e-08  1.43e-05  1.00e+00     0s
  41   3.13538710e+00  2.59e-08  5.11e-06  3.26e-07  9.76e-01     0s
  42   3.13647354e+00  8.62e-10  4.77e-09  1.65e-07  1.00e+00     0s
  43   3.13699681e+00  4.66e-12  8.99e-10  1.00e-09  1.00e+00     0s

NL barrier solved model in 43 iterations and 0.20 seconds (0.26 work units)
First-order optimal solution
Solution objective 3.136996810418e+00

User-callback calls 132, time in user-callback 0.00 sec
  Sub: Z₀=3.136997 [LOCAL], α=[0.000,0.000,0.000,0.000,0.000,1.037,0.000,0.000,0.000,0.000,0.000,0.000,0.000,0.895,0.000,0.000,0.000,0.000,0.000,0.000,0.000,0.000,1.205,0.000,0.000,0.000,0.000,0.000,0.000,0.000,0.000,0.000,0.000,0.000,0.000,0.000]
  Iter 2: LB=3.137000  UB=Inf  gap=NaN
  Cut: intercept=-913.387492, π_x_range=[-416.4530, 306.2767]
  [ρ-diag] φ̂U=1.00, φ̃U=2.00, λU=2.00
    π_L range=[-134.3500, 96.2767], |π_L|_∞=134.3500
    π_F range=[-268.7696, 193.9372], |π_F|_∞=268.7696
    π_ψ range=[-13.3333, 18.2139], |π_ψ|_∞=18.2139
    ρ̂1: [0.0004, 6.8234], ρ̂3: [0.0000, 4.9785]
    ρ̃1: [0.0000, 6.8274], ρ̃3: [0.0000, 4.9781]
    ρ⁰1: [0.0000, 6.6667], ρ⁰3: [0.0000, 9.1069]
  [φ-diag] φ̂ actual: [0.0000, 1.0000], φ̂U=1.00
  [φ-diag] φ̃ actual: [-0.0000, 0.0000], φ̃U=2.00
  Mini-Benders[1] (mw): LB=3.137000, Z₀(α*)=3.137000, intercept=28.436149
  Mini-Benders[2] (mw): LB=3.137000, Z₀(α*)=3.137000, intercept=28.436149
  Mini-Benders[3]: LB stagnated, break
Gurobi Optimizer version 13.0.0 build v13.0.0rc1 (win64 - Windows 10.0 (19045.2))

CPU model: AMD Ryzen 9 5900X 12-Core Processor, instruction set [SSE2|AVX|AVX2]
Thread count: 12 physical cores, 24 logical processors, using up to 24 threads

Non-default parameters:
DualReductions  0
NonConvex  2

Optimize a model with 4218 rows, 8405 columns and 20033 nonzeros (Max)
Model fingerprint: 0x0a99dd90
Model has 1496 linear objective coefficients
Model has 1440 quadratic constraints
Coefficient statistics:
  Matrix range     [2e-01, 3e+01]
  QMatrix range    [1e+00, 1e+00]
  QLMatrix range   [1e+00, 1e+00]
  Objective range  [1e+00, 2e+00]
  Bounds range     [1e-02, 3e+00]
  RHS range        [5e-02, 3e+00]
Presolve removed 102 rows and 688 columns
Presolve time: 0.00s
Presolved: 4908 rows, 7717 columns, 18169 nonzeros
Ordering time: 0.01s

Barrier statistics:
 Free vars  : 200
 AA' NZ     : 2.085e+04
 Factor NZ  : 1.228e+05 (roughly 6 MB of memory)
 Factor Ops : 7.000e+06 (less than 1 second per iteration)
 Threads    : 12

                  Objective                Residual
Iter       Primal          Dual         Primal    Dual     Compl     Time
   0  -3.46699357e+04 -0.00000000e+00  5.71e+03 1.00e+00  9.26e+01     0s
   1  -3.63326491e+04  7.59940585e+02  2.51e+03 5.23e+00  5.27e+01     0s
   2  -3.39845127e+04  9.39963380e+02  5.76e+02 1.84e+00  1.85e+01     0s
   3  -2.44564774e+04  7.06829069e+02  6.53e+01 6.65e-01  6.45e+00     0s
   4  -9.88922861e+03  5.42756277e+02  3.39e+00 1.94e-01  1.79e+00     0s
   5  -2.36276327e+03  3.39671462e+02  5.14e-01 2.43e-02  3.19e-01     0s
   6  -5.87665220e+02  1.46752464e+02  1.30e-01 3.52e-03  7.62e-02     0s
   7  -1.50570550e+02  7.65014383e+01  3.44e-02 1.36e-03  2.48e-02     0s
   8  -2.71272038e+01  1.95176885e+01  5.66e-03 1.13e-04  4.47e-03     0s
   9  -5.36994186e+00  6.69352157e+00  1.47e-03 1.81e-05  1.11e-03     0s
  10   2.15399003e+00  3.33256707e+00  1.48e-04 1.52e-07  1.01e-04     0s
  11   3.11559345e+00  3.14113380e+00  2.17e-06 1.17e-08  2.13e-06     0s
  12   3.13696013e+00  3.13703640e+00  2.81e-08 8.48e-11  6.37e-09     0s
  13   3.13700000e+00  3.13700000e+00  3.37e-11 1.07e-14  1.82e-14     0s

Barrier solved model in 13 iterations and 0.04 seconds (0.04 work units)
Optimal objective 3.13700000e+00


User-callback calls 61, time in user-callback 0.00 sec
  α-step: Z₀=3.137000, α=[0.000,0.000,0.000,0.000,0.000,1.032,0.000,0.000,0.000,0.000,0.000,0.000,0.000,0.891,0.000,0.000,0.000,0.000,0.000,0.000,0.000,0.000,1.215,0.000,0.000,0.000,0.000,0.000,0.000,0.000,0.000,0.000,0.000,0.000,0.000,0.000]
  Alt-Benders[1] (mw): LB=3.137000, Z₀(α*)=3.137000, intercept=28.440225
  Alt-Benders[2] (mw): LB=3.137000, Z₀(α*)=3.137000, intercept=28.440225
  Alt-Benders[3]: LB stagnated, break
  OMP re-solve: 0.000s

=== True-DRO Benders iter 3 ===
  OMP: t₀=3.137000, UB=Inf, gap=NaN, x=[0, 0, 0, 0, 0, 1, 0, 0, 0, 0, 0, 0, 0, 1, 0, 0, 0, 0, 0, 0, 0, 0, 1, 0, 0, 0, 0, 0, 0, 0, 0, 0, 0, 0, 0, 0] (0.000s)
Set parameter TimeLimit to value 30
Set parameter MIPGap to value 0.0001
Set parameter MIPFocus to value 0
Gurobi Optimizer version 13.0.0 build v13.0.0rc1 (win64 - Windows 10.0 (19045.2))

CPU model: AMD Ryzen 9 5900X 12-Core Processor, instruction set [SSE2|AVX|AVX2]
Thread count: 12 physical cores, 24 logical processors, using up to 24 threads

Non-default parameters:
TimeLimit  30
DualReductions  0
NonConvex  2

Optimize a model with 4218 rows, 8405 columns and 20033 nonzeros (Max)
Model fingerprint: 0xb0e5c94a
Model has 1496 linear objective coefficients
Model has 1440 quadratic constraints
Coefficient statistics:
  Matrix range     [2e-01, 3e+01]
  QMatrix range    [1e+00, 1e+00]
  QLMatrix range   [1e+00, 1e+00]
  Objective range  [1e+00, 2e+00]
  Bounds range     [1e+00, 3e+00]
  RHS range        [5e-02, 3e+00]

Continuous model is non-convex -- solving as a MIP

Presolve time: 0.01s
Presolved: 9978 rows, 8406 columns, 31553 nonzeros
Presolved model has 1440 bilinear constraint(s)
Variable types: 8406 continuous, 0 integer (0 binary)
Found heuristic solution: objective 3.1369970

Root relaxation: objective 9.411000e+00, 4338 iterations, 0.14 seconds (0.34 work units)

    Nodes    |    Current Node    |     Objective Bounds      |     Work
 Expl Unexpl |  Obj  Depth IntInf | Incumbent    BestBd   Gap | It/Node Time

     0     0    9.41100    0  220    3.13700    9.41100   200%     -    0s
     0     0          -    0         3.13700    3.13700  0.00%     -    0s

Cutting planes:
  RLT: 62

Explored 1 nodes (4373 simplex iterations) in 0.32 seconds (0.52 work units)
Thread count was 24 (of 24 available processors)

Solution count 1: 3.137 

Optimal solution found (tolerance 1.00e-04)
Best objective 3.136997003706e+00, best bound 3.137000000000e+00, gap 0.0001%

User-callback calls 66, time in user-callback 0.00 sec
  Sub: Z₀=3.136997, α=[0.000,0.000,0.000,0.000,0.000,1.048,0.000,0.000,0.000,0.000,0.000,0.000,0.000,0.903,0.000,0.000,0.000,0.000,0.000,0.000,0.000,0.000,1.186,0.000,0.000,0.000,0.000,0.000,0.000,0.000,0.000,0.000,0.000,0.000,0.000,0.000]
  Iter 3: LB=3.137000  UB=3.136997  gap=9.55e-07
True-DRO Benders converged at iter 3 (gap=9.55e-07)
  Wall time: 3.23 sec
  OMP  time: mean=0.061s, median=0.081s, max=0.102s
  Sub  time (exact): mean=0.343s, median=0.343s, q90=0.343s, max=0.343s (n=1/3)

----------------------------------------
True-DRO: status=Optimal, Z₀=3.136997, iters=3, time=3.23s
  LB=3.137000, UB=3.136997, gap=9.55e-07
  x* = [0, 0, 0, 0, 0, 1, 0, 0, 0, 0, 0, 0, 0, 1, 0, 0, 0, 0, 0, 0, 0, 0, 1, 0, 0, 0, 0, 0, 0, 0, 0, 0, 0, 0, 0, 0]
  α* = [0.000, 0.000, 0.000, 0.000, 0.000, 1.048, 0.000, 0.000, 0.000, 0.000, 0.000, 0.000, 0.000, 0.903, 0.000, 0.000, 0.000, 0.000, 0.000, 0.000, 0.000, 0.000, 1.186, 0.000, 0.000, 0.000, 0.000, 0.000, 0.000, 0.000, 0.000, 0.000, 0.000, 0.000, 0.000, 0.000]
  Profile saved → C:\Users\user\robust_bilevel_network_games\true_dro\profiles.jls (31 entries)
============================================================
Primal Recovery: x* → α* → (h*, λ*, ψ⁰*)
============================================================
  x* = [0, 0, 0, 0, 0, 1, 0, 0, 0, 0, 0, 0, 0, 1, 0, 0, 0, 0, 0, 0, 0, 0, 1, 0, 0, 0, 0, 0, 0, 0, 0, 0, 0, 0, 0, 0]
  α* = [0.0000, 0.0000, 0.0000, 0.0000, 0.0000, 1.0480, 0.0000, 0.0000, 0.0000, 0.0000, 0.0000, 0.0000, 0.0000, 0.9026, 0.0000, 0.0000, 0.0000, 0.0000, 0.0000, 0.0000, 0.0000, 0.0000, 1.1864, 0.0000, 0.0000, 0.0000, 0.0000, 0.0000, 0.0000, 0.0000, 0.0000, 0.0000, 0.0000, 0.0000, 0.0000, 0.0000]

  Piece-F obj = 0.000000
  λ*   = -0.000000
  Σh*  = 0.000000  (budget: λw = -0.000000)

  h* (nonzero arcs):
  ψ⁰* (nonzero arcs):

  Per-scenario sink flow ỹ_ts:
    s=1: ỹ_ts=-0.000000
    s=2: ỹ_ts=-0.000000
    s=3: ỹ_ts=-0.000000
    s=4: ỹ_ts=-0.000000
    s=5: ỹ_ts=-0.000000
    s=6: ỹ_ts=-0.000000
    s=7: ỹ_ts=-0.000000
    s=8: ỹ_ts=-0.000000
    s=9: ỹ_ts=-0.000000
    s=10: ỹ_ts=-0.000000
    s=11: ỹ_ts=-0.000000
    s=12: ỹ_ts=-0.000000
    s=13: ỹ_ts=-0.000000
    s=14: ỹ_ts=-0.000000
    s=15: ỹ_ts=-0.000000
    s=16: ỹ_ts=-0.000000
    s=17: ỹ_ts=-0.000000
    s=18: ỹ_ts=-0.000000
    s=19: ỹ_ts=-0.000000
    s=20: ỹ_ts=-0.000000

  Z₀(Benders) = 3.136997
  Piece-F(recovered) = 0.000000

Finished: 2026-04-17T14:33:18.267
